EDGE_WEIGHT_TYPE: EXPLICIT
EDGE_WEIGHT_FORMAT: FULL_MATRIX
DIMENSION: 27
VEHICLES: 1
NODE_COORD_SECTION
1 24 53
2 24 53
3 59 96
4 63 97
5 67 98
6 71 100
7 75 101
8 79 103
9 18 80
10 22 83
11 26 86
12 30 88
13 34 90
14 38 92
15 42 93
16 46 94
17 50 95
18 54 95
19 52 118
20 60 116
21 45 107
22 40 108
23 36 110
24 52 106
25 59 106
26 63 107
27 70 111
EDGE_WEIGHT_SECTION
0.0 0.0 9999999999.0 9999999999.0 9999999999.0 9999999999.0 9999999999.0 9999999999.0 27.659 30.067 33.061 35.511 38.328 41.437 43.863 46.53 49.396 51.614 70.774 72.56 57.94 57.28 58.249 59.942 9999999999.0 9999999999.0 9999999999.0 
0.0 0.0 9999999999.0 9999999999.0 9999999999.0 9999999999.0 9999999999.0 9999999999.0 27.659 30.067 33.061 35.511 38.328 41.437 43.863 46.53 49.396 51.614 70.774 72.56 57.94 57.28 58.249 59.942 9999999999.0 9999999999.0 9999999999.0 
9999999999.0 9999999999.0 0.0 4.123 8.246 12.649 16.763 21.19 9999999999.0 9999999999.0 9999999999.0 9999999999.0 9999999999.0 9999999999.0 9999999999.0 9999999999.0 9999999999.0 9999999999.0 9999999999.0 20.025 9999999999.0 9999999999.0 9999999999.0 9999999999.0 10.0 11.705 18.601 
9999999999.0 9999999999.0 4.123 0.0 4.123 8.544 12.649 17.088 9999999999.0 9999999999.0 9999999999.0 9999999999.0 9999999999.0 9999999999.0 9999999999.0 9999999999.0 9999999999.0 9999999999.0 9999999999.0 19.235 9999999999.0 9999999999.0 9999999999.0 9999999999.0 9.849 10.0 15.652 
9999999999.0 9999999999.0 8.246 4.123 0.0 4.472 8.544 13.0 9999999999.0 9999999999.0 9999999999.0 9999999999.0 9999999999.0 9999999999.0 9999999999.0 9999999999.0 9999999999.0 9999999999.0 25.0 19.313 9999999999.0 9999999999.0 9999999999.0 9999999999.0 11.314 9.849 13.342 
9999999999.0 9999999999.0 12.649 8.544 4.472 0.0 4.123 8.544 9999999999.0 9999999999.0 9999999999.0 9999999999.0 9999999999.0 9999999999.0 9999999999.0 9999999999.0 9999999999.0 9999999999.0 26.173 19.416 9999999999.0 9999999999.0 9999999999.0 9999999999.0 13.416 10.63 11.045 
9999999999.0 9999999999.0 16.763 12.649 8.544 4.123 0.0 4.472 9999999999.0 9999999999.0 9999999999.0 9999999999.0 9999999999.0 9999999999.0 9999999999.0 9999999999.0 9999999999.0 9999999999.0 28.601 21.213 9999999999.0 9999999999.0 9999999999.0 9999999999.0 16.763 13.416 11.18 
9999999999.0 9999999999.0 21.19 17.088 13.0 8.544 4.472 0.0 9999999999.0 9999999999.0 9999999999.0 9999999999.0 9999999999.0 9999999999.0 9999999999.0 9999999999.0 9999999999.0 9999999999.0 30.887 23.022 9999999999.0 9999999999.0 9999999999.0 9999999999.0 20.224 16.492 12.042 
27.659 27.659 9999999999.0 9999999999.0 9999999999.0 9999999999.0 9999999999.0 9999999999.0 0.0 5.0 10.0 14.422 18.868 23.324 27.295 31.305 35.341 39.0 50.99 55.317 38.184 35.609 34.986 42.802 9999999999.0 9999999999.0 9999999999.0 
30.067 30.067 9999999999.0 9999999999.0 9999999999.0 9999999999.0 9999999999.0 9999999999.0 5.0 0.0 5.0 9.434 13.892 18.358 22.361 26.401 30.463 34.176 46.098 50.329 33.242 30.806 30.414 37.802 9999999999.0 9999999999.0 9999999999.0 
33.061 33.061 9999999999.0 9999999999.0 9999999999.0 9999999999.0 9999999999.0 9999999999.0 10.0 5.0 0.0 4.472 8.944 13.416 17.464 21.541 25.632 29.411 41.231 45.343 28.32 26.077 26.0 32.802 9999999999.0 9999999999.0 9999999999.0 
35.511 35.511 9999999999.0 9999999999.0 9999999999.0 9999999999.0 9999999999.0 9999999999.0 14.422 9.434 4.472 0.0 4.472 8.944 13.0 17.088 21.19 25.0 37.202 41.037 24.207 22.361 22.804 28.425 9999999999.0 9999999999.0 9999999999.0 
38.328 38.328 9999999999.0 9999999999.0 9999999999.0 9999999999.0 9999999999.0 9999999999.0 18.868 13.892 8.944 4.472 0.0 4.472 8.544 12.649 16.763 20.616 33.287 36.77 20.248 18.974 20.1 24.083 9999999999.0 9999999999.0 9999999999.0 
41.437 41.437 9999999999.0 9999999999.0 9999999999.0 9999999999.0 9999999999.0 9999999999.0 23.324 18.358 13.416 8.944 4.472 0.0 4.123 8.246 12.369 16.279 29.53 32.558 16.553 16.125 18.111 19.799 9999999999.0 9999999999.0 9999999999.0 
43.863 43.863 9999999999.0 9999999999.0 9999999999.0 9999999999.0 9999999999.0 9999999999.0 27.295 22.361 17.464 13.0 8.544 4.123 0.0 4.123 8.246 12.166 26.926 29.206 14.318 15.133 18.028 16.401 9999999999.0 9999999999.0 9999999999.0 
46.53 46.53 9999999999.0 9999999999.0 9999999999.0 9999999999.0 9999999999.0 9999999999.0 31.305 26.401 21.541 17.088 12.649 8.246 4.123 0.0 4.123 8.062 24.739 26.077 13.038 15.232 18.868 13.416 9999999999.0 9999999999.0 9999999999.0 
49.396 49.396 9999999999.0 9999999999.0 9999999999.0 9999999999.0 9999999999.0 9999999999.0 35.341 30.463 25.632 21.19 16.763 12.369 8.246 4.123 0.0 4.0 23.087 9999999999.0 13.0 16.401 20.518 11.18 9999999999.0 9999999999.0 9999999999.0 
51.614 51.614 9999999999.0 9999999999.0 9999999999.0 9999999999.0 9999999999.0 9999999999.0 39.0 34.176 29.411 25.0 20.616 16.279 12.166 8.062 4.0 0.0 23.087 9999999999.0 15.0 19.105 23.431 11.18 9999999999.0 9999999999.0 9999999999.0 
70.774 70.774 9999999999.0 9999999999.0 25.0 26.173 28.601 30.887 50.99 46.098 41.231 37.202 33.287 29.53 26.926 24.739 23.087 23.087 0.0 8.246 13.038 15.62 17.889 12.0 9999999999.0 15.556 19.313 
72.56 72.56 20.025 19.235 19.313 19.416 21.213 23.022 55.317 50.329 45.343 41.037 36.77 32.558 29.206 26.077 9999999999.0 9999999999.0 8.246 0.0 17.493 21.541 24.739 12.806 10.05 9.487 11.18 
57.94 57.94 9999999999.0 9999999999.0 9999999999.0 9999999999.0 9999999999.0 9999999999.0 38.184 33.242 28.32 24.207 20.248 16.553 14.318 13.038 13.0 15.0 13.038 17.493 0.0 5.099 9.487 7.071 9999999999.0 18.0 25.318 
57.28 57.28 9999999999.0 9999999999.0 9999999999.0 9999999999.0 9999999999.0 9999999999.0 35.609 30.806 26.077 22.361 18.974 16.125 15.133 15.232 16.401 19.105 15.62 21.541 5.099 0.0 4.472 12.166 9999999999.0 23.022 30.15 
58.249 58.249 9999999999.0 9999999999.0 9999999999.0 9999999999.0 9999999999.0 9999999999.0 34.986 30.414 26.0 22.804 20.1 18.111 18.028 18.868 20.518 23.431 17.889 24.739 9.487 4.472 0.0 16.492 9999999999.0 27.166 34.015 
59.942 59.942 9999999999.0 9999999999.0 9999999999.0 9999999999.0 9999999999.0 9999999999.0 42.802 37.802 32.802 28.425 24.083 19.799 16.401 13.416 11.18 11.18 12.0 12.806 7.071 12.166 16.492 0.0 9999999999.0 9999999999.0 18.682 
9999999999.0 9999999999.0 10.0 9.849 11.314 13.416 16.763 20.224 9999999999.0 9999999999.0 9999999999.0 9999999999.0 9999999999.0 9999999999.0 9999999999.0 9999999999.0 9999999999.0 9999999999.0 9999999999.0 10.05 9999999999.0 9999999999.0 9999999999.0 9999999999.0 0.0 4.123 12.083 
9999999999.0 9999999999.0 11.705 10.0 9.849 10.63 13.416 16.492 9999999999.0 9999999999.0 9999999999.0 9999999999.0 9999999999.0 9999999999.0 9999999999.0 9999999999.0 9999999999.0 9999999999.0 15.556 9.487 18.0 23.022 27.166 9999999999.0 4.123 0.0 8.062 
9999999999.0 9999999999.0 18.601 15.652 13.342 11.045 11.18 12.042 9999999999.0 9999999999.0 9999999999.0 9999999999.0 9999999999.0 9999999999.0 9999999999.0 9999999999.0 9999999999.0 9999999999.0 19.313 11.18 25.318 30.15 34.015 18.682 12.083 8.062 0.0 
PRIZE_SECTION
1 0
2 0
3 1000
4 1000
5 1000
6 1000
7 1000
8 1000
9 1000
10 1000
11 1000
12 1000
13 1000
14 1000
15 1000
16 1000
17 1000
18 1000
19 1000
20 1000
21 1000
22 1000
23 1000
24 1000
25 1000
26 1000
27 1000
DEPOT_SECTION
1
2
EOF